
(set-logic BVNIA)
(synth-fun int_bvxor_3 ((s Int) (t Int)) Int
(
  (I Int) (Ic Int) (B Bool)
)
(
  (I Int  (
       Ic
       (+ I I )
       (* I I)
       (ite B I I)
    )
  )
  (Ic Int (
  s
  t
    0
1
2
3
4
5
6
7
  )
)
  (B Bool (
       (= I I)
       (>= I I)
       (not B)
     )
  )
)
)

(declare-var s Int)
(declare-var t Int)

(constraint (=> (and (<= 0 s 7) (<= 0 t 7)) (= (int_bvand_3 s t) (bv2nat (bvand ((_ int2bv 3) s) ((_ int2bv 3) t))) )))
(check-synth)
